(set-logic QF_UF)
(declare-fun A0 () Bool)
(declare-fun A1 () Bool)
(declare-fun A2 () Bool)
(declare-fun A3 () Bool)
(declare-fun A4 () Bool)
(declare-fun A5 () Bool)
(declare-fun A6 () Bool)
(declare-fun A7 () Bool)
(declare-fun A8 () Bool)
(declare-fun A9 () Bool)
(declare-fun A10 () Bool)
(declare-fun A11 () Bool)
(declare-fun A12 () Bool)
(declare-fun A14 () Bool)
(declare-fun A15 () Bool)
(declare-fun A16 () Bool)
(declare-fun A17 () Bool)
(declare-fun A18 () Bool)
(declare-fun A19 () Bool)
(declare-fun A20 () Bool)
(declare-fun A21 () Bool)
(declare-fun A22 () Bool)
(declare-fun A23 () Bool)
(declare-fun A24 () Bool)
(assert (let ((.def_0 (and A0 A21))) (let ((.def_1 (not .def_0))) (let ((.def_2 (not A2))) (let ((.def_3 (or A23 .def_2))) (let ((.def_4 (not .def_3))) (let ((.def_5 (or .def_4 .def_1))) (let ((.def_6 (not .def_5))) (let ((.def_7 (not A11))) (let ((.def_8 (and .def_7 A10))) (let ((.def_9 (or A10 A4))) (let ((.def_10 (not .def_9))) (let ((.def_11 (or .def_10 .def_8))) (let ((.def_12 (not .def_11))) (let ((.def_13 (or .def_12 .def_6))) (let ((.def_14 (not A8))) (let ((.def_15 (or .def_14 A7))) (let ((.def_16 (or A16 A7))) (let ((.def_17 (or .def_16 .def_15))) (let ((.def_18 (not .def_17))) (let ((.def_19 (or A4 A0))) (let ((.def_20 (not .def_19))) (let ((.def_21 (and A1 A9))) (let ((.def_22 (and .def_21 .def_20))) (let ((.def_23 (= .def_22 .def_18))) (let ((.def_24 (and .def_23 .def_13))) (let ((.def_25 (not A21))) (let ((.def_26 (not A19))) (let ((.def_27 (or .def_26 .def_25))) (let ((.def_28 (not .def_27))) (let ((.def_29 (or A11 A20))) (let ((.def_30 (and .def_29 .def_28))) (let ((.def_31 (not A12))) (let ((.def_32 (= A22 .def_31))) (let ((.def_33 (not .def_32))) (let ((.def_34 (or .def_25 .def_14))) (let ((.def_35 (and .def_34 .def_33))) (let ((.def_36 (not .def_35))) (let ((.def_37 (and .def_36 .def_30))) (let ((.def_38 (not A24))) (let ((.def_39 (and .def_38 A6))) (let ((.def_40 (not .def_39))) (let ((.def_41 (and A17 A14))) (let ((.def_42 (or .def_41 .def_40))) (let ((.def_43 (not .def_42))) (let ((.def_44 (not A10))) (let ((.def_45 (= .def_44 A22))) (let ((.def_46 (not A18))) (let ((.def_47 (or .def_46 .def_46))) (let ((.def_48 (and .def_47 .def_45))) (let ((.def_49 (not .def_48))) (let ((.def_50 (and .def_49 .def_43))) (let ((.def_51 (not .def_50))) (let ((.def_52 (= .def_51 .def_37))) (let ((.def_53 (not .def_52))) (let ((.def_54 (and .def_53 .def_24))) (let ((.def_55 (not .def_54))) (let ((.def_56 (not A6))) (let ((.def_57 (not A1))) (let ((.def_58 (= .def_57 .def_56))) (let ((.def_59 (and A24 A1))) (let ((.def_60 (not .def_59))) (let ((.def_61 (or .def_60 .def_58))) (let ((.def_62 (not .def_61))) (let ((.def_63 (and .def_14 .def_14))) (let ((.def_64 (not .def_63))) (let ((.def_65 (not A15))) (let ((.def_66 (and .def_46 .def_65))) (let ((.def_67 (not .def_66))) (let ((.def_68 (and .def_67 .def_64))) (let ((.def_69 (not .def_68))) (let ((.def_70 (and .def_69 .def_62))) (let ((.def_71 (= .def_44 A15))) (let ((.def_72 (and A2 A8))) (let ((.def_73 (or .def_72 .def_71))) (let ((.def_74 (or .def_2 A1))) (let ((.def_75 (not A16))) (let ((.def_76 (or .def_75 .def_65))) (let ((.def_77 (not .def_76))) (let ((.def_78 (or .def_77 .def_74))) (let ((.def_79 (not .def_78))) (let ((.def_80 (and .def_79 .def_73))) (let ((.def_81 (or .def_80 .def_70))) (let ((.def_82 (not .def_81))) (let ((.def_83 (and .def_31 A3))) (let ((.def_84 (not A20))) (let ((.def_85 (and .def_84 A8))) (let ((.def_86 (not .def_85))) (let ((.def_87 (= .def_86 .def_83))) (let ((.def_88 (or A3 A7))) (let ((.def_89 (not A9))) (let ((.def_90 (or .def_89 .def_84))) (let ((.def_91 (not .def_90))) (let ((.def_92 (= .def_91 .def_88))) (let ((.def_93 (not .def_92))) (let ((.def_94 (or .def_93 .def_87))) (let ((.def_95 (not .def_94))) (let ((.def_96 (not A5))) (let ((.def_97 (and .def_96 .def_14))) (let ((.def_98 (not .def_97))) (let ((.def_99 (not A7))) (let ((.def_100 (or A12 .def_99))) (let ((.def_101 (not .def_100))) (let ((.def_102 (or .def_101 .def_98))) (let ((.def_103 (not .def_102))) (let ((.def_104 (and A20 A24))) (let ((.def_105 (not A0))) (let ((.def_106 (or .def_105 A1))) (let ((.def_107 (not .def_106))) (let ((.def_108 (or .def_107 .def_104))) (let ((.def_109 (not .def_108))) (let ((.def_110 (or .def_109 .def_103))) (let ((.def_111 (and .def_110 .def_95))) (let ((.def_112 (not .def_111))) (let ((.def_113 (or .def_112 .def_82))) (let ((.def_114 (not .def_113))) (let ((.def_115 (= .def_114 .def_55))) (let ((.def_116 (not .def_115))) .def_116))))))))))))))))))))))))))))))))))))))))))))))))))))))))))))))))))))))))))))))))))))))))))))))))))))))))))))))))))))))
(check-sat)
